research/certificates/n4_2x4_k5.cnf
p cnf 59 151
1 2 3 4 0
1 5 0
-1 9 0
-9 10 0
-2 -9 11 0
-11 12 0
-3 -11 13 0
-13 14 0
-4 -13 15 0
-15 16 0
-5 -15 17 0
-17 18 0
-6 -17 0
-2 10 0
-10 19 0
-3 -10 12 0
-12 20 0
-4 -12 14 0
-14 21 0
-5 -14 16 0
-16 22 0
-6 -16 18 0
-18 23 0
-7 -18 0
-3 19 0
-4 -19 20 0
-5 -20 21 0
-6 -21 22 0
-7 -22 23 0
-8 -23 0
1 24 0
-24 25 0
2 -24 26 0
-26 27 0
3 -26 28 0
-28 29 0
4 -28 0
2 25 0
-25 30 0
3 -25 27 0
-27 31 0
4 -27 29 0
-29 32 0
5 -29 0
3 30 0
-30 33 0
4 -30 31 0
-31 34 0
5 -31 32 0
-32 35 0
6 -32 0
4 33 0
-33 36 0
5 -33 34 0
-34 37 0
6 -34 35 0
-35 38 0
7 -35 0
5 36 0
6 -36 37 0
7 -37 38 0
8 -38 0
-39 1 0
-39 2 0
-39 3 0
-39 4 0
-40 5 0
-40 6 0
-40 7 0
-40 8 0
39 40 0
-41 1 0
-41 2 0
-41 5 0
-41 6 0
-42 2 0
-42 3 0
-42 6 0
-42 7 0
-43 3 0
-43 4 0
-43 7 0
-43 8 0
41 42 43 0
-44 1 0
-44 2 0
-44 3 0
-44 6 0
-45 2 0
-45 3 0
-45 4 0
-45 7 0
-46 2 0
-46 5 0
-46 6 0
-46 7 0
-47 3 0
-47 6 0
-47 7 0
-47 8 0
44 45 46 47 0
-48 1 0
-48 2 0
-48 6 0
-48 7 0
-49 2 0
-49 3 0
-49 7 0
-49 8 0
-50 2 0
-50 3 0
-50 5 0
-50 6 0
-51 3 0
-51 4 0
-51 6 0
-51 7 0
48 49 50 51 0
-52 1 0
-52 2 0
-52 3 0
-52 5 0
-53 2 0
-53 3 0
-53 4 0
-53 6 0
-54 3 0
-54 5 0
-54 6 0
-54 7 0
-55 4 0
-55 6 0
-55 7 0
-55 8 0
-56 1 0
-56 2 0
-56 3 0
-56 7 0
-57 2 0
-57 3 0
-57 4 0
-57 8 0
-58 1 0
-58 5 0
-58 6 0
-58 7 0
-59 2 0
-59 6 0
-59 7 0
-59 8 0
52 53 54 55 56 57 58 59 0
