research/certificates/n4_2x4_k5.lrat
152 19 0 25 15 77 80 14 84 73 0
153 -41 11 0 72 73 3 5 0
154 20 -19 0 26 17 81 6 153 84 77 76 16 14 0
155 20 0 152 154 0
155 d 153 154 26 15 25 17 0
156 60 -56 0 0
157 60 -52 0 0
158 60 -44 0 0
159 60 -39 0 0
160 -60 56 52 44 39 0 -156 -157 -158 -159 0
161 1 -60 0 135 119 85 63 160 0
162 2 -60 0 136 120 86 64 160 0
163 3 -60 0 137 121 87 65 160 0
163 d 160 135 136 137 119 120 121 85 86 87 63 64 65 0
164 61 -58 0 0
165 61 -54 0 0
166 61 -46 0 0
167 61 -40 0 0
168 -61 58 54 46 40 0 -164 -165 -166 -167 0
169 5 -61 0 144 128 94 67 168 0
170 6 -61 0 145 129 95 68 168 0
171 7 -61 0 146 130 96 69 168 0
171 d 168 144 145 146 128 129 130 94 95 96 67 68 69 0
172 62 -59 0 0
173 62 -53 0 0
174 62 -50 0 0
175 62 -42 0 0
176 62 -48 0 0
177 62 -41 0 0
178 -62 59 53 50 42 48 41 0 -172 -173 -174 -175 -176 -177 0
179 2 -62 0 147 123 110 76 103 73 178 0
180 6 -62 0 148 126 113 78 104 75 178 0
180 d 178 147 148 123 126 110 113 76 78 103 104 73 75 0
181 63 -51 0 0
182 63 -49 0 0
183 63 -47 0 0
184 63 -45 0 0
185 63 -43 0 0
186 63 -42 0 0
187 -63 51 49 47 45 43 42 0 -181 -182 -183 -184 -185 -186 0
188 3 -63 0 114 107 97 90 80 77 187 0
189 7 -63 0 117 108 99 92 82 79 187 0
189 d 187 114 117 107 108 97 99 90 92 80 82 77 79 0
190 64 -57 0 0
191 64 -55 0 0
192 64 -43 0 0
193 -64 57 55 43 0 -190 -191 -192 0
194 4 -64 0 141 131 81 193 0
195 8 -64 0 142 134 83 193 0
195 d 193 141 142 131 134 81 83 0
196 -1 10 0 4 3 0
197 -1 11 -2 0 5 3 0
197 d 3 4 5 0
198 -2 12 -3 0 16 14 0
199 -1 12 -3 0 16 196 0
199 d 16 14 196 0
200 12 -1 -2 0 197 6 0
201 -1 -2 13 -3 0 7 197 0
201 d 197 6 7 0
202 14 -1 -2 -3 0 201 8 0
203 -4 15 -1 -2 -3 0 201 9 0
203 d 201 8 9 0
204 16 -4 -1 -2 -3 0 203 10 0
205 -5 17 -4 -1 -2 -3 0 203 11 0
205 d 203 10 11 0
206 18 -5 -4 -1 -2 -3 0 205 12 0
207 -6 -5 -4 -1 -2 -3 0 205 13 0
207 d 205 12 13 0
208 -14 22 -6 0 28 19 0
209 22 -6 -5 0 155 27 28 0
209 d 28 19 27 0
210 -8 -18 0 23 30 0
211 -8 -7 -22 0 29 30 0
211 d 30 23 29 0
212 1 25 0 32 31 0
213 1 2 26 0 33 31 0
213 d 31 32 33 0
214 27 1 2 0 213 34 0
215 1 2 28 3 0 35 213 0
215 d 213 34 35 0
216 29 1 2 3 0 215 36 0
217 4 1 2 3 0 215 37 0
217 d 215 36 37 1 0
218 -33 37 6 0 60 53 0
219 5 37 6 0 60 59 0
219 d 60 53 59 0
220 8 -35 0 57 62 0
221 8 -37 7 0 61 62 0
221 d 62 57 61 0
222 40 4 0 66 71 0
223 40 60 0 159 71 0
223 d 71 66 159 0
224 62 43 41 0 84 175 0
225 63 43 41 0 84 186 0
225 d 84 175 186 0
226 6 47 46 45 0 101 88 0
227 60 47 46 45 0 101 158 0
227 d 101 88 158 0
228 5 53 56 55 54 57 58 59 0 151 122 0
229 60 53 56 55 54 57 58 59 0 151 157 0
229 d 151 122 157 0
230 -4 14 -2 -3 0 198 18 0
231 -4 14 -1 -3 0 199 18 0
232 -4 14 -1 -2 0 200 18 0
232 d 18 198 199 200 0
233 -16 -8 -7 0 211 21 0
234 -8 -7 -14 -6 0 208 211 0
235 -8 -7 -6 -5 0 209 211 0
235 d 211 21 208 209 0
236 -34 8 7 0 221 55 0
237 8 7 -33 6 0 218 221 0
238 8 7 5 6 0 219 221 0
238 d 221 55 218 219 0
239 1 49 50 51 0 118 102 0
240 7 49 50 51 0 118 105 0
241 62 49 50 51 0 118 176 0
241 d 118 102 105 176 0
242 -5 -14 18 -6 0 22 20 0
243 -5 -14 -8 -7 0 233 20 0
244 18 -6 -4 -1 -2 -3 0 204 22 0
245 -8 -7 -4 -1 -2 -3 0 204 233 0
245 d 20 204 22 233 0
246 2 30 0 39 38 0
247 2 27 3 0 40 38 0
248 1 30 0 39 212 0
249 1 27 3 0 40 212 0
249 d 38 212 39 40 0
250 32 -27 4 0 42 43 0
251 5 -27 4 0 42 44 0
252 32 1 2 3 0 216 43 0
253 5 1 2 3 0 216 44 0
253 d 42 216 43 44 0
254 -27 34 0 48 41 0
255 -27 5 32 0 49 41 0
256 34 -30 4 0 47 48 0
257 -30 4 5 32 0 49 47 0
257 d 41 47 48 49 0
258 -30 34 5 0 54 46 0
259 -30 8 7 6 0 237 46 0
260 4 34 5 0 54 52 0
261 4 8 7 6 0 237 52 0
261 d 46 52 54 237 0
262 -32 7 0 58 50 0
263 -32 8 0 220 50 0
264 7 -34 6 0 56 58 0
265 8 -34 6 0 56 220 0
265 d 50 56 58 220 0
266 4 8 0 70 222 0
267 4 61 0 167 222 0
268 60 8 0 70 223 0
269 60 61 0 167 223 0
269 d 222 223 70 167 261 0
270 63 62 41 0 224 185 0
271 64 62 41 0 224 192 0
272 63 41 0 225 185 0
272 d 225 224 185 192 0
273 2 6 47 45 0 226 93 0
274 61 6 47 45 0 226 166 0
275 2 60 47 45 0 227 93 0
276 61 60 47 45 0 227 166 0
276 d 226 227 93 166 0
277 3 5 53 56 55 57 58 59 0 228 127 0
278 61 5 53 56 55 57 58 59 0 228 165 0
279 3 60 53 56 55 57 58 59 0 229 127 0
280 61 60 53 56 55 57 58 59 0 229 165 0
280 d 228 229 127 165 0
281 3 60 53 55 57 58 59 0 279 156 0
281 d 279 0
282 61 60 53 55 57 58 59 0 280 156 0
282 d 280 0
283 7 3 5 53 55 57 58 59 0 277 138 0
284 7 61 5 53 55 57 58 59 0 278 138 0
285 60 3 5 53 55 57 58 59 0 277 156 0
286 60 61 5 53 55 57 58 59 0 278 156 0
286 d 138 156 277 278 0
287 63 62 0 270 177 0
287 d 270 0
288 2 6 47 0 273 89 0
288 d 273 0
289 2 60 47 0 275 89 0
289 d 275 0
290 2 61 6 47 0 274 89 0
291 2 61 60 47 0 276 89 0
292 4 61 6 47 0 274 91 0
293 4 61 60 47 0 276 91 0
294 63 61 6 47 0 274 184 0
295 63 61 60 47 0 276 184 0
295 d 89 91 184 274 276 0
296 61 60 53 55 57 59 0 282 164 0
296 d 282 0
297 7 61 5 53 55 57 59 0 284 164 0
297 d 284 0
298 3 60 55 57 58 59 0 281 124 0
298 d 281 0
299 7 3 5 55 57 58 59 0 283 124 0
299 d 283 0
300 60 3 5 55 57 58 59 0 285 124 0
300 d 285 0
301 7 61 5 53 57 59 0 297 133 0
301 d 297 0
302 7 3 5 57 58 59 0 299 133 0
302 d 299 0
303 3 60 55 58 59 0 298 140 0
303 d 298 0
304 7 3 5 58 59 0 302 140 0
304 d 302 0
305 60 3 5 55 58 59 0 300 140 0
305 d 300 0
306 7 3 5 58 0 304 149 0
306 d 304 0
307 7 61 5 53 57 0 301 149 0
307 d 301 0
308 2 6 0 288 98 0
308 d 288 0
309 2 61 6 0 290 98 0
309 d 290 0
310 4 61 6 0 292 98 0
310 d 292 0
311 63 61 6 0 294 98 0
311 d 294 0
312 64 62 0 271 177 0
312 d 271 0
313 2 47 0 289 162 0
313 d 289 309 310 0
314 63 6 0 311 170 0
314 d 311 0
315 62 49 51 0 241 174 0
315 d 241 0
316 63 1 0 72 272 0
317 63 5 0 74 272 0
318 63 62 0 177 272 0
318 d 272 72 74 177 287 0
319 7 5 53 57 0 307 169 0
319 d 307 0
320 60 5 53 55 57 58 59 0 286 169 0
320 d 286 253 0
321 2 61 47 0 291 162 0
321 d 291 293 295 0
322 3 55 58 59 0 303 163 0
322 d 303 296 0
323 3 5 55 58 59 0 305 163 0
323 d 305 0
324 1 0 2 161 316 268 269 189 170 235 0
325 2 0 162 308 268 269 169 171 235 0
326 3 0 163 188 268 269 314 317 171 235 0
327 14 0 326 324 325 202 0
328 4 0 327 266 267 210 169 170 242 0
329 -7 0 328 326 325 324 24 245 244 109 116 180 315 0
330 -55 0 329 133 0
331 -59 0 329 149 0
332 -61 0 329 171 0
333 -63 0 329 189 0
334 -32 0 329 262 0
335 -58 0 332 164 0
336 60 0 332 269 0
337 -51 0 333 181 0
338 -49 0 333 182 0
339 -47 0 333 183 0
340 6 0 333 314 0
341 5 0 333 317 0
342 62 0 333 318 0
343 50 0 338 337 329 240 0
344 0 340 341 324 325 326 328 207 0
